97 100
3 9 1
13 11 1
31 20 1
29 31 1
28 17 1
24 33 1
23 4 1
11 8 1
19 30 1
19 31 1
31 18 1
16 11 1
17 7 1
18 12 1
16 12 1
17 3 1
7 27 1
17 33 1
19 18 1
33 25 1
20 3 1
23 18 1
26 8 1
26 28 1
29 3 1
21 11 1
33 2 1
2 7 2
19 33 1
8 31 1
13 31 1
18 5 1
19 9 1
25 4 1
19 32 1
33 7 1
4 32 1
22 8 1
13 25 1
20 9 1
28 3 1
31 27 1
4 6 1
35 18 1
16 13 1
24 22 1
9 18 1
3 19 1
12 23 1
21 2 1
26 10 2
1 8 1
34 5 1
17 20 1
27 13 1
15 28 1
10 15 1
21 3 1
32 1 1
5 29 1
17 12 1
17 28 1
2 27 1
14 5 2
4 5 1
1 11 1
14 19 1
27 1 1
2 14 1
16 16 1
18 17 1
5 1 1
19 34 1
11 18 1
10 8 1
25 35 1
6 3 1
17 34 1
33 22 1
8 27 1
1 31 1
3 6 1
20 18 1
2 5 1
16 21 1
34 28 1
5 33 1
31 21 1
15 22 1
10 11 1
33 1 1
17 8 1
33 9 1
18 35 1
26 24 1
20 32 1
5 18 1
40 40 
40 40 
40 40 
40 40 
40 40 
40 40 
40 40 
40 40 
40 40 
40 40 
40 40 
40 40 
40 40 
40 40 
40 40 
40 40 
40 40 
40 40 
40 40 
40 40 
40 40 
40 40 
40 40 
40 40 
40 40 
40 40 
40 40 
40 40 
40 40 
40 40 
40 40 
40 40 
40 40 
40 40 
40 40 
40 40 
40 40 
40 40 
40 40 
40 40 
40 40 
40 40 
40 40 
40 40 
40 40 
40 40 
40 40 
40 40 
40 40 
40 40 
40 40 
40 40 
40 40 
40 40 
40 40 
40 40 
40 40 
40 40 
40 40 
40 40 
40 40 
40 40 
40 40 
40 40 
40 40 
40 40 
40 40 
40 40 
40 40 
40 40 
40 40 
40 40 
40 40 
40 40 
40 40 
40 40 
40 40 
40 40 
40 40 
40 40 
40 40 
40 40 
40 40 
40 40 
40 40 
40 40 
40 40 
40 40 
40 40 
40 40 
40 40 
40 40 
40 40 
40 40 
40 40 
40 40 
40 40 
40 40 
40 40 
40 40 
